\* NBA *\
Maximize
Objective: 40.2134897684 ('Alperen_Sengun',_'HOU')_C_36395714
 + 25.2870062297 ('Amen_Thompson',_'HOU')_SF_36395749
 + 38.6498819066 ('Andre_Drummond',_'PHI')_C_36395742
 + 33.054414439 ('Anfernee_Simons',_'POR')_SG_36395739
 + 39.5040116032 ('Bam_Adebayo',_'MIA')_C_36395721
 + 30.3579663296 ('Bradley_Beal',_'PHX')_SF_36395748
 + 34.9359494646 ('Brandon_Ingram',_'NOP')_SF_36395732
 + 31.3002132718 ('Brandon_Miller',_'CHA')_SG_36395740
 + 33.8775795854 ('CJ_McCollum',_'NOP')_SG_36395745
 + 44.7755353965 ('Cade_Cunningham',_'DET')_PG_36395713
 + 34.5773059643 ('Cam_Thomas',_'BKN')_SG_36395727
 + 31.1928334343 ('Coby_White',_'CHI')_SG_36395730
 + 41.1492572555 ('Damian_Lillard',_'MIL')_PG_36395704
 + 32.8442097924 ('Deandre_Ayton',_'POR')_C_36395734
 + 40.4010821318 ('Dejounte_Murray',_'NOP')_PG_36395720
 + 29.8841563841 ('Deni_Avdija',_'POR')_SF_36395746
 + 38.2019287578 ('Desmond_Bane',_'MEM')_SF_36395723
 + 39.4719196132 ('Devin_Booker',_'PHX')_SG_36395707
 + 43.5474167235 ('Donovan_Mitchell',_'CLE')_SG_36395711
 + 29.3428309777 ('Draymond_Green',_'GSW')_C_36395747
 + 37.3953289184 ('Evan_Mobley',_'CLE')_PF_36395729
 + 34.2539238945 ('Franz_Wagner',_'ORL')_SF_36395737
 + 57.9172979433 ('Giannis_Antetokounmpo',_'MIL')_PF_36395701
 + 47.4914930638 ('Ja_Morant',_'MEM')_PG_36395703
 + 35.6174668212 ('Jalen_Duren',_'DET')_C_36395736
 + 35.3085688932 ('Jalen_Green',_'HOU')_SG_36395724
 + 36.3393676984 ('Jalen_Johnson',_'ATL')_PF_36395728
 + 44.1968364183 ('James_Harden',_'LAC')_PG_36395706
 + 36.4678957611 ('Jarrett_Allen',_'CLE')_C_36395726
 + 32.2612609667 ('Jimmy_Butler',_'MIA')_SF_36395722
 + 29.4211305842 ('Kelly_Oubre_Jr.',_'PHI')_SG_36395750
 + 38.3943905483 ('Kevin_Durant',_'PHX')_PF_36395712
 + 49.123537502 ('LaMelo_Ball',_'CHA')_PG_36395710
 + 37.8133010602 ('Lauri_Markkanen',_'UTA')_SF_36395731
 + 35.3030906288 ('Miles_Bridges',_'CHA')_PF_36395733
 + 34.5057205196 ('Myles_Turner',_'IND')_C_36395744
 + 33.3397964075 ('Nic_Claxton',_'BKN')_C_36395738
 + 37.5229438271 ('Nikola_Vucevic',_'CHI')_C_36395718
 + 40.2819403468 ('Paolo_Banchero',_'ORL')_PF_36395715
 + 39.0926428601 ('Pascal_Siakam',_'IND')_PF_36395719
 + 46.2257893239 ('Scottie_Barnes',_'TOR')_PF_36395709
 + 44.4201057945 ('Stephen_Curry',_'GSW')_PG_36395716
 + 44.7817050415 ('Trae_Young',_'ATL')_PG_36395702
 + 32.2373992812 ('Tyler_Herro',_'MIA')_SG_36395741
 + 43.3007101039 ('Tyrese_Haliburton',_'IND')_PG_36395705
 + 45.2149824948 ('Tyrese_Maxey',_'PHI')_PG_36395708
 + 33.8563513134 ('Zach_LaVine',_'CHI')_SF_36395735
Subject To
Must_have_1_C: ('Alperen_Sengun',_'HOU')_C_36395714
 + ('Andre_Drummond',_'PHI')_C_36395742 + ('Bam_Adebayo',_'MIA')_C_36395721
 + ('Deandre_Ayton',_'POR')_C_36395734 + ('Draymond_Green',_'GSW')_C_36395747
 + ('Jalen_Duren',_'DET')_C_36395736 + ('Jarrett_Allen',_'CLE')_C_36395726
 + ('Myles_Turner',_'IND')_C_36395744 + ('Nic_Claxton',_'BKN')_C_36395738
 + ('Nikola_Vucevic',_'CHI')_C_36395718 = 1
Must_have_1_PF: ('Evan_Mobley',_'CLE')_PF_36395729
 + ('Giannis_Antetokounmpo',_'MIL')_PF_36395701
 + ('Jalen_Johnson',_'ATL')_PF_36395728 + ('Kevin_Durant',_'PHX')_PF_36395712
 + ('Miles_Bridges',_'CHA')_PF_36395733
 + ('Paolo_Banchero',_'ORL')_PF_36395715
 + ('Pascal_Siakam',_'IND')_PF_36395719
 + ('Scottie_Barnes',_'TOR')_PF_36395709 = 1
Must_have_1_PG: ('Cade_Cunningham',_'DET')_PG_36395713
 + ('Damian_Lillard',_'MIL')_PG_36395704
 + ('Dejounte_Murray',_'NOP')_PG_36395720 + ('Ja_Morant',_'MEM')_PG_36395703
 + ('James_Harden',_'LAC')_PG_36395706 + ('LaMelo_Ball',_'CHA')_PG_36395710
 + ('Stephen_Curry',_'GSW')_PG_36395716 + ('Trae_Young',_'ATL')_PG_36395702
 + ('Tyrese_Haliburton',_'IND')_PG_36395705
 + ('Tyrese_Maxey',_'PHI')_PG_36395708 = 1
Must_have_1_SF: ('Amen_Thompson',_'HOU')_SF_36395749
 + ('Bradley_Beal',_'PHX')_SF_36395748 + ('Brandon_Ingram',_'NOP')_SF_36395732
 + ('Deni_Avdija',_'POR')_SF_36395746 + ('Desmond_Bane',_'MEM')_SF_36395723
 + ('Franz_Wagner',_'ORL')_SF_36395737 + ('Jimmy_Butler',_'MIA')_SF_36395722
 + ('Lauri_Markkanen',_'UTA')_SF_36395731 + ('Zach_LaVine',_'CHI')_SF_36395735
 = 1
Must_have_1_SG: ('Anfernee_Simons',_'POR')_SG_36395739
 + ('Brandon_Miller',_'CHA')_SG_36395740 + ('CJ_McCollum',_'NOP')_SG_36395745
 + ('Cam_Thomas',_'BKN')_SG_36395727 + ('Coby_White',_'CHI')_SG_36395730
 + ('Devin_Booker',_'PHX')_SG_36395707
 + ('Donovan_Mitchell',_'CLE')_SG_36395711
 + ('Jalen_Green',_'HOU')_SG_36395724 + ('Kelly_Oubre_Jr.',_'PHI')_SG_36395750
 + ('Tyler_Herro',_'MIA')_SG_36395741 = 1
Binaries
('Alperen_Sengun',_'HOU')_C_36395714
('Amen_Thompson',_'HOU')_SF_36395749
('Andre_Drummond',_'PHI')_C_36395742
('Anfernee_Simons',_'POR')_SG_36395739
('Bam_Adebayo',_'MIA')_C_36395721
('Bradley_Beal',_'PHX')_SF_36395748
('Brandon_Ingram',_'NOP')_SF_36395732
('Brandon_Miller',_'CHA')_SG_36395740
('CJ_McCollum',_'NOP')_SG_36395745
('Cade_Cunningham',_'DET')_PG_36395713
('Cam_Thomas',_'BKN')_SG_36395727
('Coby_White',_'CHI')_SG_36395730
('Damian_Lillard',_'MIL')_PG_36395704
('Deandre_Ayton',_'POR')_C_36395734
('Dejounte_Murray',_'NOP')_PG_36395720
('Deni_Avdija',_'POR')_SF_36395746
('Desmond_Bane',_'MEM')_SF_36395723
('Devin_Booker',_'PHX')_SG_36395707
('Donovan_Mitchell',_'CLE')_SG_36395711
('Draymond_Green',_'GSW')_C_36395747
('Evan_Mobley',_'CLE')_PF_36395729
('Franz_Wagner',_'ORL')_SF_36395737
('Giannis_Antetokounmpo',_'MIL')_PF_36395701
('Ja_Morant',_'MEM')_PG_36395703
('Jalen_Duren',_'DET')_C_36395736
('Jalen_Green',_'HOU')_SG_36395724
('Jalen_Johnson',_'ATL')_PF_36395728
('James_Harden',_'LAC')_PG_36395706
('Jarrett_Allen',_'CLE')_C_36395726
('Jimmy_Butler',_'MIA')_SF_36395722
('Kelly_Oubre_Jr.',_'PHI')_SG_36395750
('Kevin_Durant',_'PHX')_PF_36395712
('LaMelo_Ball',_'CHA')_PG_36395710
('Lauri_Markkanen',_'UTA')_SF_36395731
('Miles_Bridges',_'CHA')_PF_36395733
('Myles_Turner',_'IND')_C_36395744
('Nic_Claxton',_'BKN')_C_36395738
('Nikola_Vucevic',_'CHI')_C_36395718
('Paolo_Banchero',_'ORL')_PF_36395715
('Pascal_Siakam',_'IND')_PF_36395719
('Scottie_Barnes',_'TOR')_PF_36395709
('Stephen_Curry',_'GSW')_PG_36395716
('Trae_Young',_'ATL')_PG_36395702
('Tyler_Herro',_'MIA')_SG_36395741
('Tyrese_Haliburton',_'IND')_PG_36395705
('Tyrese_Maxey',_'PHI')_PG_36395708
('Zach_LaVine',_'CHI')_SF_36395735
End
